<?xml version = "1.0" encoding="UTF-8" standalone="yes"?>
<CPLEXSolution version="1.2">
 <header
   problemName="mknap01_2_cut_n6"
   objectiveValue="6875.1589517080429"
   solutionTypeValue="1"
   solutionTypeString="basic"
   solutionStatusValue="1"
   solutionStatusString="optimal"
   solutionMethodString="primal"
   primalFeasible="1"
   dualFeasible="1"
   simplexIterations="0"
   writeLevel="1"/>
 <quality
   epRHS="9.9999999999999995e-07"
   epOpt="9.9999999999999995e-07"
   maxPrimalInfeas="0"
   maxDualInfeas="0"
   maxPrimalResidual="2.5590640717609858e-14"
   maxDualResidual="5.1159076974727213e-13"
   maxX="1"
   maxPi="5062.1020023556166"
   maxSlack="107.25559481742684"
   maxRedCost="3856.4696113073592"
   kappa="3.3449713951227311"/>
 <linearConstraints>
  <constraint name="c0" index="0" status="BS" slack="107.25559481742684" dual="-0"/>
  <constraint name="c1" index="1" status="BS" slack="75.806831566541064" dual="-0"/>
  <constraint name="c2" index="2" status="LL" slack="0" dual="10.001666666666667"/>
  <constraint name="c3" index="3" status="BS" slack="34.275618374557112" dual="-0"/>
  <constraint name="c4" index="4" status="BS" slack="60.459363957595187" dual="-0"/>
  <constraint name="c5" index="5" status="BS" slack="67.59717314487375" dual="-0"/>
  <constraint name="c6" index="6" status="BS" slack="65.02061248527454" dual="-0"/>
  <constraint name="c7" index="7" status="BS" slack="49.143109540633262" dual="-0"/>
  <constraint name="c8" index="8" status="BS" slack="94.449352179030058" dual="-0"/>
  <constraint name="c9" index="9" status="BS" slack="99.755594817426839" dual="-0"/>
  <constraint name="cut_1" index="10" status="BS" slack="0.4452296819787871" dual="-0"/>
  <constraint name="cut_2" index="11" status="BS" slack="0.049469964664308252" dual="-0"/>
  <constraint name="cut_3" index="12" status="BS" slack="0.17667844522966325" dual="-0"/>
  <constraint name="cut_4" index="13" status="LL" slack="0" dual="5062.1020023556166"/>
  <constraint name="cut_5" index="14" status="BS" slack="0.78091872791503747" dual="-0"/>
  <constraint name="cut_6" index="15" status="BS" slack="0.80212014134270748" dual="-0"/>
 </linearConstraints>
 <variables>
  <variable name="x0" index="0" status="BS" value="0.7061248527679358" reducedCost="0"/>
  <variable name="x1" index="1" status="LL" value="0" reducedCost="-1666.4673085983072"/>
  <variable name="x2" index="2" status="UL" value="1" reducedCost="1299.9166666666665"/>
  <variable name="x3" index="3" status="UL" value="1" reducedCost="2849.833333333333"/>
  <variable name="x4" index="4" status="LL" value="0" reducedCost="-1740.104428739661"/>
  <variable name="x5" index="5" status="LL" value="0" reducedCost="-1996.5301884569672"/>
  <variable name="x6" index="6" status="LL" value="0" reducedCost="-3856.4696113073592"/>
  <variable name="x7" index="7" status="BS" value="0.19081272084809628" reducedCost="0"/>
  <variable name="x8" index="8" status="LL" value="0" reducedCost="-2302.6932744404758"/>
  <variable name="x9" index="9" status="LL" value="0" reducedCost="-1404.299151943457"/>
 </variables>
 <objectiveValues>
  <objective index="0" name="" value="6875.1589517080429"/>
 </objectiveValues>
</CPLEXSolution>
